
  //Products1 = {"pi1", "pi2", "pi3"};
  //Products2 = {"po1", "po2", "po3"};
  Products = {"p1", "p2", "p3"};
  //Products_activation = {"x1", "x2", "x3"};

  Resources = {"R1", "R2"};

  Demand = [ 100 200 300 ];
  Capacity = [20 40 ];
  Inside_cost = [ 0.6 0.8 0.3 ];
  Outside_cost = [ 0.8 0.9 0.4 ];
  Fixed_cost = [ 20 10 5 ];
  Resource_consumption = [ [0.5 0.4 0.3] [0.2 0.4 0.6] ];
  M = 300;
  
